
Gurobi 9.1.2 (win64) logging started Tue Dec  7 10:12:55 2021

Gurobi Optimizer version 9.1.2 build v9.1.2rc0 (win64)
Thread count: 8 physical cores, 8 logical processors, using up to 8 threads
Optimize a model with 1 rows, 69 columns and 68 nonzeros
Model fingerprint: 0xa60e1e9a
Variable types: 1 continuous, 68 integer (68 binary)
Coefficient statistics:
  Matrix range     [1e+00, 1e+01]
  Objective range  [1e+00, 1e+00]
  Bounds range     [2e+01, 2e+01]
  RHS range        [1e+01, 1e+01]
Found heuristic solution: objective -20.6888789

Explored 0 nodes (0 simplex iterations) in 14.03 seconds
Thread count was 1 (of 8 available processors)

Solution count 1: -20.6889 
No other solutions better than -20.6889

Optimal solution found (tolerance 1.00e-04)
Best objective -2.068887890712e+01, best bound -2.068887890712e+01, gap 0.0000%

User-callback calls 25, time in user-callback 17.72 sec
